unsat
(:binary-propagations  28
 :conflicts            1
 :final-checks         1
 :max-generation       1
 :max-memory           26.46
 :memory               21.71
 :mk-bool-var          2503
 :mk-clause            871
 :mk-clause-binary     3326
 :num-allocs           45859012
 :num-checks           1
 :propagations         28
 :quant-instantiations 480
 :restarts             1
 :rlimit-count         355861
 :time                 0.07)
